NAME : kroB100-C-3-1-a__learnable_bias_same_priority_ls20__26110.tour
COMMENT : Length = 26110.000
COMMENT : Generated by evaluate_ctspd.py for learnable_bias_same_priority_ls20
TYPE : TOUR
DIMENSION : 100
TOUR_SECTION
22
23
88
47
81
79
65
37
72
38
20
80
30
75
56
100
26
69
62
5
67
40
39
70
53
73
85
93
11
28
91
3
95
1
10
68
49
86
21
90
46
7
84
58
54
52
43
89
87
60
74
94
57
34
25
9
27
71
12
98
32
29
8
99
97
76
59
35
61
66
4
83
6
15
51
48
31
63
13
78
36
96
92
19
44
41
17
45
18
24
77
55
50
16
2
42
82
33
64
14
-1
EOF
